data_Tc
loop_
_publ_author_name
'Marples, J. A. C'
'Koch, C. C.'

_publ_section_title
;
 A low temperature X-ray investigation of 
 technetium and the Tc-Mo A-15 compound
;
_journal_name_full               'Physics Letters A'
_journal_page_first              307
_journal_page_last               308
_journal_volume                  41
_journal_year                    1972
_chemical_formula_sum            Tc
_chemical_name_mineral           Technetium
_space_group_IT_number           194
_symmetry_space_group_name_Hall  '-P 6c 2c'
_symmetry_space_group_name_H-M   'P 63/m m c'
_cell_angle_alpha                90
_cell_angle_beta                 90
_cell_angle_gamma                120
_cell_length_a                   2.7407
_cell_length_b                   2.7407
_cell_length_c                   4.3980
_cell_measurement_temperature    298
_cell_measurement_pressure       101.325
loop_
_symmetry_equiv_pos_as_xyz
x,y,z
-x,-x+y,1/2+z
x,x-y,1/2-z
-x+y,-x,1/2-z
x-y,x,1/2+z
-y,-x,z
y,x,-z
y,-x+y,-z
-y,x-y,z
x-y,-y,1/2+z
-x+y,y,1/2-z
x,y,1/2-z
-x,-y,1/2+z
x,x-y,z
-x,-x+y,-z
x-y,x,-z
-x+y,-x,z
y,x,1/2+z
-y,-x,1/2-z
-y,x-y,1/2-z
y,-x+y,1/2+z
-x+y,y,z
x-y,-y,-z
-x,-y,-z
loop_
_atom_site_label
_atom_site_fract_x
_atom_site_fract_y
_atom_site_fract_z
Tc 0.33333 0.66667 0.25000
